\ This file has been generated by DOcplex
\ ENCODING=ISO-8859-1
\Problem name: p1_formulation

Maximize
 obj: allocate_c0_v1 + allocate_c0_v2 + allocate_c0_v3
Subject To
 storageConstr: 391 allocate_c0_v1 + 326 allocate_c0_v2 + 356 allocate_c0_v3
                 <= 50000000
 storageConstr#1: 391 allocate_c1_v1 + 326 allocate_c1_v2 + 356 allocate_c1_v3
                   <= 905
 storageConstr#2: 391 allocate_c2_v1 + 326 allocate_c2_v2 + 356 allocate_c2_v3
                   <= 798
 storageConstr#3: 391 allocate_c3_v1 + 326 allocate_c3_v2 + 356 allocate_c3_v3
                   <= 358
 storageConstr#4: 391 allocate_c4_v1 + 326 allocate_c4_v2 + 356 allocate_c4_v3
                   <= 739
 cpuConstr: 2046 allocate_c0_v1 + 2604 allocate_c0_v2 + 2731 allocate_c0_v3 <= 
            3000000
 cpuConstr#6: 2046 allocate_c1_v1 + 2604 allocate_c1_v2 + 2731 allocate_c1_v3
               <= 4255
 cpuConstr#7: 2046 allocate_c2_v1 + 2604 allocate_c2_v2 + 2731 allocate_c2_v3
               <= 3443
 cpuConstr#8: 2046 allocate_c3_v1 + 2604 allocate_c3_v2 + 2731 allocate_c3_v3
               <= 6408
 cpuConstr#9: 2046 allocate_c4_v1 + 2604 allocate_c4_v2 + 2731 allocate_c4_v3
               <= 5890
 ramConstr: 118 allocate_c0_v1 + 246 allocate_c0_v2 + 134 allocate_c0_v3 <= 
            200000
 ramConstr#11: 118 allocate_c1_v1 + 246 allocate_c1_v2 + 134 allocate_c1_v3 <= 
               6794
 ramConstr#12: 118 allocate_c2_v1 + 246 allocate_c2_v2 + 134 allocate_c2_v3 <= 
               831
 ramConstr#13: 118 allocate_c3_v1 + 246 allocate_c3_v2 + 134 allocate_c3_v3 <= 
               2507
 ramConstr#14: 118 allocate_c4_v1 + 246 allocate_c4_v2 + 134 allocate_c4_v3 <= 
               5644
 AllocationConst: allocate_c0_v1 + allocate_c1_v1 + allocate_c2_v1
                  + allocate_c3_v1 + allocate_c4_v1 = 1
 AllocationConst#16: allocate_c0_v2 + allocate_c1_v2 + allocate_c2_v2
                     + allocate_c3_v2 + allocate_c4_v2 = 1
 AllocationConst#17: allocate_c0_v3 + allocate_c1_v3 + allocate_c2_v3
                     + allocate_c3_v3 + allocate_c4_v3 = 1

Bounds
 0 <= allocate_c0_v1 <= 1
 0 <= allocate_c0_v2 <= 1
 0 <= allocate_c0_v3 <= 1
 0 <= allocate_c1_v1 <= 1
 0 <= allocate_c1_v2 <= 1
 0 <= allocate_c1_v3 <= 1
 0 <= allocate_c2_v1 <= 1
 0 <= allocate_c2_v2 <= 1
 0 <= allocate_c2_v3 <= 1
 0 <= allocate_c3_v1 <= 1
 0 <= allocate_c3_v2 <= 1
 0 <= allocate_c3_v3 <= 1
 0 <= allocate_c4_v1 <= 1
 0 <= allocate_c4_v2 <= 1
 0 <= allocate_c4_v3 <= 1

Binaries
 allocate_c0_v1 allocate_c0_v2 allocate_c0_v3 allocate_c1_v1 allocate_c1_v2
 allocate_c1_v3 allocate_c2_v1 allocate_c2_v2 allocate_c2_v3 allocate_c3_v1
 allocate_c3_v2 allocate_c3_v3 allocate_c4_v1 allocate_c4_v2 allocate_c4_v3
End
